124 167 22 184 67 77 57 47 112 126 15 191 10 41 148 194 104 88 90 84 23 107 195 140 8 6 108 75 139 89 162 149 39 173 156 165 81 102 182 137 198 134 66 60 103 13 132 62 50 9 46 106 186 71 44 76 11 163 52 118 32 117 61 91 178 80 158 128 192 199 146 131 196 174 141 27 40 19 83 145 30 160 42 29 35 110 28 172 121 55 153 98 179 143 36 177 111 100 21 16 78 18 1 25 101 164 59 181 176 82 122 49 138 45 7 166 161 51 48 197 2 20 150 14 38 183 37 26 69 97 74 168 93 169 24 144 133 188 54 115 116 34 170 155 187 113 86 99 123 142 56 4 33 64 17 70 94 72 180 12 87 85 79 157 189 190 58 43 130 147 154 135 3 53 73 119 129 63 171 136 125 0 152 96 105 114 185 31 68 193 5 92 65 109 95 151 159 175 120 127